n_res = 4;
rc = [ 12, 12, 12, 12 ];
n_tasks = 30;
d = [ 3, 2, 9, 6, 1, 10, 9, 9, 10, 4, 8, 10, 3, 9, 10, 4, 1, 2, 9, 1, 4, 10, 5, 9, 1, 2, 1, 7, 1, 5 ];
rr = [| 0, 0, 3, 0, 0, 5, 6, 0, 10, 0, 4, 0, 1, 0, 0, 0, 6, 2, 0, 2, 7, 0, 0, 6, 8, 0, 0, 1, 0, 6
      | 0, 9, 1, 5, 0, 0, 0, 9, 6, 0, 3, 8, 0, 9, 0, 8, 6, 0, 4, 0, 0, 0, 0, 7, 0, 0, 0, 0, 10, 0
      | 3, 9, 0, 1, 0, 1, 0, 2, 0, 4, 0, 7, 10, 1, 6, 2, 0, 0, 4, 8, 0, 6, 0, 0, 9, 0, 10, 6, 2, 2
      | 0, 4, 0, 9, 9, 4, 9, 0, 8, 0, 6, 0, 0, 8, 5, 6, 0, 0, 0, 0, 0, 0, 9, 0, 4, 9, 0, 0, 8, 9 |];
suc = [ { 2 }, 
        { 3 }, 
        { 4 }, 
        { 5 }, 
        { 6 }, 
        { 7 }, 
        { 8 }, 
        { 9 }, 
        { 10 }, 
        { 11 }, 
        { 12 }, 
        { 13 }, 
        { 14 }, 
        { 15 }, 
        { 16 }, 
        { 17 }, 
        { 18 }, 
        { 19 }, 
        { 20 }, 
        { 21 }, 
        { 22 }, 
        { 23 }, 
        { 24 }, 
        { 25 }, 
        { 26 }, 
        { 27 }, 
        { 28 }, 
        { 29 }, 
        { 30 }, 
        {  }]; 
